NAME: tsp_146
COMMENT: Random TSP instance
TYPE: TSP
DIMENSION: 50
EDGE_WEIGHT_TYPE: EUC_2D
NODE_COORD_SECTION
1 222 983
2 953 836
3 109 184
4 816 314
5 609 399
6 297 360
7 156 607
8 760 782
9 535 108
10 790 254
11 385 65
12 41 513
13 718 107
14 297 689
15 178 980
16 510 169
17 118 836
18 775 136
19 215 407
20 460 313
21 896 893
22 709 337
23 427 833
24 477 553
25 391 645
26 722 967
27 449 354
28 72 309
29 811 315
30 952 470
31 563 816
32 615 43
33 235 991
34 808 293
35 524 413
36 160 916
37 350 490
38 357 318
39 826 112
40 937 961
41 383 906
42 982 341
43 194 728
44 994 372
45 265 820
46 52 531
47 259 641
48 994 286
49 717 604
50 411 561
